6,1	0,0	15,6	19,1	0,0	0,0	0,0	0,0	0,0	6,4
7,1	10,1	0,0	6,3	6,3	0,0	0,0	19,5	0,0	0,0
0,0	0,0	13,7	0,0	10,5	16,9	0,0	0,0	14,8	0,0
7,0	0,0	13,0	0,0	0,0	0,0	18,6	0,0	0,0	0,0
0,0	18,1	0,0	18,1	16,9	0,0	0,0	17,8	0,0	0,0
0,0	8,4	15,7	0,0	8,9	11,8	0,0	0,0	17,3	0,0
0,0	9,3	0,0	18,1	0,0	0,0	9,3	0,0	0,0	8,4
19,5	0,0	14,9	0,0	0,0	0,0	0,0	0,0	0,0	7,2
0,0	7,5	0,0	14,3	5,9	0,0	0,0	18,7	0,0	0,0
0,0	0,0	7,9	0,0	0,0	12,0	11,5	0,0	0,0	10,5
									
3,5	3,8	4,8	3,2	4,2	3,5	3,2	4,0	3,7	4,1
